pure_adt/isaplanner_prop_22.smt2
(set-logic HORN)
(declare-datatypes ((Nat_27 0)) (((Z_77 ) (S_27 (projS_26 Nat_27)))))
(declare-fun diseqNat_27 (Nat_27 Nat_27) Bool)
(declare-fun projS_27 (Nat_27 Nat_27) Bool)
(declare-fun isZ_27 (Nat_27) Bool)
(declare-fun isS_27 (Nat_27) Bool)
(assert (forall ((x_839 Nat_27))
	(projS_27 x_839 (S_27 x_839))))
(assert (isZ_27 Z_77))
(assert (forall ((x_841 Nat_27))
	(isS_27 (S_27 x_841))))
(assert (forall ((x_842 Nat_27))
	(diseqNat_27 Z_77 (S_27 x_842))))
(assert (forall ((x_843 Nat_27))
	(diseqNat_27 (S_27 x_843) Z_77)))
(assert (forall ((x_844 Nat_27) (x_845 Nat_27))
	(=> (diseqNat_27 x_844 x_845)
	    (diseqNat_27 (S_27 x_844) (S_27 x_845)))))
(declare-fun max_0 (Nat_27 Nat_27 Nat_27) Bool)
(assert (forall ((x_830 Nat_27) (x_828 Nat_27) (z_78 Nat_27))
	(=> (max_0 x_830 z_78 x_828)
	    (max_0 (S_27 x_830) (S_27 z_78) (S_27 x_828)))))
(assert (forall ((z_78 Nat_27))
	(max_0 (S_27 z_78) (S_27 z_78) Z_77)))
(assert (forall ((x_832 Nat_27))
	(max_0 x_832 Z_77 x_832)))
(assert (forall ((x_833 Nat_27) (x_834 Nat_27) (x_835 Nat_27) (x_836 Nat_27) (a_1 Nat_27) (b_1 Nat_27) (c_1 Nat_27))
	(=>	(and true
			(diseqNat_27 x_834 x_836)
			(max_0 x_833 a_1 b_1)
			(max_0 x_834 x_833 c_1)
			(max_0 x_835 b_1 c_1)
			(max_0 x_836 a_1 x_835))
		false)))
(check-sat)
